NAME : n100w60.005.661.tour
COMMENT : Length = 661
COMMENT : Found by LKH [Keld Helsgaun] Tue May  2 05:18:30 2017
TYPE : TOUR
DIMENSION : 101
TOUR_SECTION
1
30
71
73
68
25
15
83
45
51
22
59
64
65
61
95
18
6
38
32
35
100
82
98
75
74
53
28
12
2
76
55
86
26
19
39
63
84
85
44
41
49
87
4
21
9
37
72
27
58
17
42
47
60
80
88
46
48
8
57
13
54
3
31
33
23
81
70
69
79
94
40
36
24
97
43
92
50
89
66
62
29
96
14
93
7
11
52
16
5
56
77
78
99
20
34
91
67
101
90
10
-1
EOF
